NAME : cgl_44.9418.tour
COMMENT : Length = 9418
COMMENT : Found by LKH-3 [Keld Helsgaun] Fri Nov  8 17:38:18 2024
TYPE : TOUR
DIMENSION : 45
TOUR_SECTION
45
2
4
3
5
6
10
11
9
8
7
1
12
14
15
13
17
16
18
19
20
21
22
23
24
35
37
41
38
42
36
40
43
39
44
25
34
33
31
30
32
29
27
28
26
-1
EOF
